0000000000000000
0000000000000000
0000000000000000
0000111111000000
0001111111110000
0000000000111000
0000000000011000
0000000000011100
0000000000011100
0000000000011100
0000000000011000
0000000000110000
0000111111110000
0001111111100000
0000000000000000
0000000000000000
